Total weight: 1292.2603389250974
Route 1: 0 94 95 2 41 22 75 56 4 0 
Route 2: 0 82 8 45 84 0 
Route 3: 0 1 51 9 71 66 32 70 0 
Route 4: 0 72 74 23 67 39 73 100 37 92 0 
Route 5: 0 53 28 26 12 80 68 77 0 
Route 6: 0 27 69 30 20 65 35 34 0 
Route 7: 0 42 15 43 57 87 13 58 0 
Route 8: 0 98 14 44 38 86 17 46 47 48 0 
Route 9: 0 88 90 63 64 11 0 
Route 10: 0 40 21 54 55 25 24 0 
Route 11: 0 52 7 62 19 36 49 10 31 0 
Route 12: 0 76 3 29 79 78 81 33 50 0 
Route 13: 0 18 96 99 85 91 16 61 5 83 60 0 
Route 14: 0 97 93 59 6 89 0 
